6 6 91
5 1 1 3 1 2 3 6 3 6 4 24 37 42 52 52 62 62 78 78 88 
5 2 1 2 2 4 1 4 2 4 3 8 20 20 40 44 56 56 78 78 88 
5 5 1 5 2 5 3 3 2 3 3 10 21 21 34 34 52 60 81 81 90 
5 6 1 6 2 1 2 5 4 1 3 30 39 39 52 52 71 71 80 80 91 
7 5 1 0 0 1 1 0 0 3 1 1 2 6 3 0 10 10 18 18 24 24 36 36 42 42 52 52 62 
8 2 1 0 0 6 1 0 0 4 1 2 3 3 2 5 4 0 8 8 18 18 30 30 36 36 44 44 50 52 60 60 66 
